; benchmark generated from python API
(set-info :status unknown)
(declare-fun x_month () (_ BitVec 32))
(declare-fun x_year () (_ BitVec 32))
(declare-fun x_day () (_ BitVec 32))
(declare-fun y_month () (_ BitVec 32))
(declare-fun y_year () (_ BitVec 32))
(declare-fun y_day () (_ BitVec 32))
(assert
 (let (($x4816 (or (= (_ bv4 32) x_month) (= (_ bv6 32) x_month) (= (_ bv9 32) x_month) (= (_ bv11 32) x_month))))
 (let (($x5886 (and (= (_ bv0 32) (bvsmod x_year (_ bv4 32))) (and (distinct (_ bv0 32) (bvsmod x_year (_ bv100 32))) true))))
 (let ((?x4205 (ite (= (_ bv2 32) x_month) (ite (or $x5886 (= (_ bv0 32) (bvsmod x_year (_ bv400 32)))) (_ bv29 32) (_ bv28 32)) (ite $x4816 (_ bv30 32) (_ bv31 32)))))
 (let (($x6026 (bvsle x_day ?x4205)))
 (let (($x789 (bvsle (_ bv1 32) x_day)))
 (let (($x2858 (bvsle (_ bv1 32) x_month)))
 (let (($x4170 (bvsge (_ bv12 32) x_month)))
 (let (($x2215 (bvsle (_ bv1901 32) x_year)))
 (or (and (= (_ bv1900 32) x_year) (bvsle (_ bv3 32) x_month) $x4170 $x789 $x6026) (and $x2215 (bvsge (_ bv2099 32) x_year) $x2858 $x4170 $x789 $x6026) (and (= (_ bv2100 32) x_year) $x2858 (bvsge (_ bv2 32) x_month) $x789 $x6026)))))))))))
(assert
 (let (($x5896 (= (_ bv4 32) y_month)))
 (let ((?x3299 (ite (or $x5896 (= (_ bv6 32) y_month) (= (_ bv9 32) y_month) (= (_ bv11 32) y_month)) (_ bv30 32) (_ bv31 32))))
 (let (($x603 (and (= (_ bv0 32) (bvsmod y_year (_ bv4 32))) (and (distinct (_ bv0 32) (bvsmod y_year (_ bv100 32))) true))))
 (let ((?x5440 (ite (= (_ bv2 32) y_month) (ite (or $x603 (= (_ bv0 32) (bvsmod y_year (_ bv400 32)))) (_ bv29 32) (_ bv28 32)) ?x3299)))
 (let (($x5530 (bvsle y_day ?x5440)))
 (let (($x4325 (bvsle (_ bv1 32) y_day)))
 (let (($x5546 (bvsle (_ bv1 32) y_month)))
 (let (($x2853 (bvsge (_ bv12 32) y_month)))
 (let (($x4486 (bvsle (_ bv1901 32) y_year)))
 (or (and (= (_ bv1900 32) y_year) (bvsle (_ bv3 32) y_month) $x2853 $x4325 $x5530) (and $x4486 (bvsge (_ bv2099 32) y_year) $x5546 $x2853 $x4325 $x5530) (and (= (_ bv2100 32) y_year) $x5546 (bvsge (_ bv2 32) y_month) $x4325 $x5530))))))))))))
(assert
 (and (= (_ bv2023 32) x_year) (= (_ bv1 32) x_month) (= (_ bv31 32) x_day)))
(assert
 (let ((?x5521 (bvadd x_month (bvadd (bvmul (_ bv0 32) (_ bv12 32)) (_ bv3 32)))))
 (let ((?x1531 (bvsub (ite (bvuge ?x5521 (_ bv2147483648 32)) (bvsub ?x5521 (_ bv0 32)) ?x5521) (_ bv1 32))))
 (let ((?x2069 (bvsmod ?x1531 (_ bv12 32))))
 (let ((?x2092 (bvadd ?x2069 (_ bv1 32))))
 (let (($x3582 (= (_ bv11 32) ?x2092)))
 (let (($x2865 (= (_ bv9 32) ?x2092)))
 (let (($x931 (= (_ bv6 32) ?x2092)))
 (let (($x586 (= (_ bv4 32) ?x2092)))
 (let ((?x652 (bvsdiv ?x1531 (_ bv12 32))))
 (let ((?x3906 (ite (and (bvuge ?x1531 (_ bv2147483648 32)) (and (distinct (_ bv0 32) ?x2069) true)) (bvsub ?x652 (_ bv1 32)) ?x652)))
 (let ((?x2703 (bvadd x_year ?x3906)))
 (let (($x3302 (or (and (= (_ bv0 32) (bvsmod ?x2703 (_ bv4 32))) (and (distinct (_ bv0 32) (bvsmod ?x2703 (_ bv100 32))) true)) (= (_ bv0 32) (bvsmod ?x2703 (_ bv400 32))))))
 (let (($x4776 (= (_ bv2 32) ?x2092)))
 (let ((?x1414 (ite $x4776 (ite $x3302 (_ bv29 32) (_ bv28 32)) (ite (or $x586 $x931 $x2865 $x3582) (_ bv30 32) (_ bv31 32)))))
 (let ((?x4730 (ite (bvsgt (_ bv1 32) x_day) (_ bv1 32) (ite (bvsgt x_day ?x1414) ?x1414 x_day))))
 (let ((?x3654 (ite (bvsgt (_ bv1 32) ?x4730) (_ bv1 32) (ite (bvsgt ?x4730 ?x1414) ?x1414 ?x4730))))
 (let ((?x5453 (ite $x4776 (ite $x3302 (_ bv31 32) (_ bv31 32)) (ite (= (_ bv1 32) ?x2092) (ite $x3302 (_ bv0 32) (_ bv0 32)) (_ bv0 32)))))
 (let ((?x5761 (ite $x586 (ite $x3302 (_ bv91 32) (_ bv90 32)) (ite (= (_ bv3 32) ?x2092) (ite $x3302 (_ bv60 32) (_ bv59 32)) ?x5453))))
 (let ((?x3222 (ite $x931 (ite $x3302 (_ bv152 32) (_ bv151 32)) (ite (= (_ bv5 32) ?x2092) (ite $x3302 (_ bv121 32) (_ bv120 32)) ?x5761))))
 (let ((?x5954 (ite (= (_ bv8 32) ?x2092) (ite $x3302 (_ bv213 32) (_ bv212 32)) (ite (= (_ bv7 32) ?x2092) (ite $x3302 (_ bv182 32) (_ bv181 32)) ?x3222))))
 (let ((?x4072 (ite (= (_ bv10 32) ?x2092) (ite $x3302 (_ bv274 32) (_ bv273 32)) (ite $x2865 (ite $x3302 (_ bv244 32) (_ bv243 32)) ?x5954))))
 (let ((?x2873 (ite (= (_ bv12 32) ?x2092) (ite $x3302 (_ bv335 32) (_ bv334 32)) (ite $x3582 (ite $x3302 (_ bv305 32) (_ bv304 32)) ?x4072))))
 (let ((?x2926 (bvadd (bvmul (_ bv365 32) (bvsub ?x2703 (_ bv1 32))) (bvsdiv (bvsub ?x2703 (_ bv1 32)) (_ bv4 32)))))
 (let ((?x1255 (bvadd (bvsub ?x2926 (bvsdiv (bvsub ?x2703 (_ bv1 32)) (_ bv100 32))) (bvsdiv (bvsub ?x2703 (_ bv1 32)) (_ bv400 32)))))
 (let ((?x5670 (bvadd (bvadd (bvsub (bvadd (bvadd ?x1255 ?x2873) (bvsub ?x3654 (_ bv1 32))) (_ bv730179 32)) (_ bv0 32)) (_ bv730179 32))))
 (let ((?x5491 (bvsmod ?x5670 (_ bv146097 32))))
 (let ((?x1526 (bvsdiv ?x5491 (_ bv36524 32))))
 (let ((?x972 (ite (bvsle (_ bv4 32) ?x1526) (_ bv3 32) ?x1526)))
 (let ((?x5337 (bvsub ?x5491 (bvmul ?x972 (_ bv36524 32)))))
 (let ((?x1329 (bvsmod ?x5337 (_ bv1461 32))))
 (let ((?x4339 (bvsdiv ?x1329 (_ bv365 32))))
 (let ((?x3804 (ite (bvsle (_ bv4 32) ?x4339) (_ bv3 32) ?x4339)))
 (let ((?x2059 (bvadd (bvadd (bvmul (bvsdiv ?x5670 (_ bv146097 32)) (_ bv400 32)) (bvmul ?x972 (_ bv100 32))) (bvmul (bvsdiv ?x5337 (_ bv1461 32)) (_ bv4 32)))))
 (let ((?x3611 (bvadd (bvadd ?x2059 ?x3804) (_ bv1 32))))
 (let (($x2485 (or (and (= (_ bv0 32) (bvsmod ?x3611 (_ bv4 32))) (and (distinct (_ bv0 32) (bvsmod ?x3611 (_ bv100 32))) true)) (= (_ bv0 32) (bvsmod ?x3611 (_ bv400 32))))))
 (let ((?x5544 (bvsub ?x1329 (bvmul ?x3804 (_ bv365 32)))))
 (let ((?x5140 (ite $x2485 (_ bv31 32) (_ bv31 32))))
 (let (($x3043 (bvsge ?x5544 ?x5140)))
 (let ((?x1808 (ite $x3043 (bvadd (bvsub ?x5544 ?x5140) (_ bv1 32)) (bvadd (bvsub ?x5544 (ite $x2485 (_ bv0 32) (_ bv0 32))) (_ bv1 32)))))
 (let ((?x2615 (ite $x2485 (_ bv60 32) (_ bv59 32))))
 (let (($x2035 (bvsge ?x5544 ?x2615)))
 (let ((?x5271 (ite $x2485 (_ bv91 32) (_ bv90 32))))
 (let (($x3094 (bvsge ?x5544 ?x5271)))
 (let ((?x4370 (ite $x3094 (bvadd (bvsub ?x5544 ?x5271) (_ bv1 32)) (ite $x2035 (bvadd (bvsub ?x5544 ?x2615) (_ bv1 32)) ?x1808))))
 (let ((?x5535 (ite $x2485 (_ bv121 32) (_ bv120 32))))
 (let (($x2583 (bvsge ?x5544 ?x5535)))
 (let ((?x5822 (ite $x2485 (_ bv152 32) (_ bv151 32))))
 (let (($x5573 (bvsge ?x5544 ?x5822)))
 (let ((?x4909 (ite $x5573 (bvadd (bvsub ?x5544 ?x5822) (_ bv1 32)) (ite $x2583 (bvadd (bvsub ?x5544 ?x5535) (_ bv1 32)) ?x4370))))
 (let ((?x2786 (ite $x2485 (_ bv182 32) (_ bv181 32))))
 (let (($x5307 (bvsge ?x5544 ?x2786)))
 (let ((?x3140 (ite $x2485 (_ bv213 32) (_ bv212 32))))
 (let (($x4912 (bvsge ?x5544 ?x3140)))
 (let ((?x2107 (ite $x4912 (bvadd (bvsub ?x5544 ?x3140) (_ bv1 32)) (ite $x5307 (bvadd (bvsub ?x5544 ?x2786) (_ bv1 32)) ?x4909))))
 (let ((?x5187 (ite $x2485 (_ bv244 32) (_ bv243 32))))
 (let (($x3975 (bvsge ?x5544 ?x5187)))
 (let ((?x4736 (ite $x2485 (_ bv274 32) (_ bv273 32))))
 (let (($x703 (bvsge ?x5544 ?x4736)))
 (let ((?x5808 (ite $x703 (bvadd (bvsub ?x5544 ?x4736) (_ bv1 32)) (ite $x3975 (bvadd (bvsub ?x5544 ?x5187) (_ bv1 32)) ?x2107))))
 (let ((?x2408 (ite $x2485 (_ bv305 32) (_ bv304 32))))
 (let (($x4404 (bvsge ?x5544 ?x2408)))
 (let ((?x496 (ite $x2485 (_ bv335 32) (_ bv334 32))))
 (let (($x6002 (bvsge ?x5544 ?x496)))
 (let ((?x5250 (ite $x6002 (bvadd (bvsub ?x5544 ?x496) (_ bv1 32)) (ite $x4404 (bvadd (bvsub ?x5544 ?x2408) (_ bv1 32)) ?x5808))))
 (let (($x4731 (= (_ bv0 32) (_ bv0 32))))
 (let ((?x3233 (ite $x5573 (_ bv6 32) (ite $x2583 (_ bv5 32) (ite $x3094 (_ bv4 32) (ite $x2035 (_ bv3 32) (ite $x3043 (_ bv2 32) (_ bv1 32))))))))
 (let ((?x2197 (ite $x4404 (_ bv11 32) (ite $x703 (_ bv10 32) (ite $x3975 (_ bv9 32) (ite $x4912 (_ bv8 32) (ite $x5307 (_ bv7 32) ?x3233)))))))
 (and (= y_year (ite $x4731 ?x2703 ?x3611)) (= y_month (ite $x4731 ?x2092 (ite $x6002 (_ bv12 32) ?x2197))) (= y_day (ite $x4731 ?x3654 ?x5250)))))))))))))))))))))))))))))))))))))))))))))))))))))))))))))))))))))))
(assert
 (let (($x5896 (= (_ bv4 32) y_month)))
(and (= (_ bv2023 32) y_year) $x5896 (= (_ bv30 32) y_day))))
(check-sat)
